objective value:                                    0
lambda[0,17]*                                       3 	(obj:0)
lambda[1,19]*                                       5 	(obj:0)
lambda[1,20]*                                       5 	(obj:0)
lambda[0,20]*                                       2 	(obj:0)
lambda[0,21]*                                       3 	(obj:0)
lambda[0,22]*                                       2 	(obj:0)
